p cnf 155 372
a 1 2 3 4 5 6 7 8 9 10 11 12 13 14 15 16 17 18 19 20 21 22 23 24 25 26 27 28 29 0
e 30 31 32 33 34 35 36 37 38 39 40 41 42 43 44 45 46 47 48 49 50 51 52 53 54 55 56 57 58 59 60 61 62 63 64 65 66 67 68 69 70 71 72 73 74 75 76 77 78 79 80 81 82 83 84 85 86 87 88 89 90 91 92 93 94 95 96 97 98 99 100 101 102 103 104 105 106 107 108 109 110 111 112 113 114 115 116 117 118 119 120 121 122 123 124 125 126 127 128 129 130 131 132 133 134 135 136 137 138 139 140 141 142 143 144 145 146 147 148 149 150 151 152 153 154 0
-1 -56 0
13 -56 0
1 56 -13 0
-12 -57 0
56 -57 0
12 57 -56 0
58 -12 0
58 -57 0
12 57 -58 0
-11 -58 -59 0
11 58 -59 0
58 59 -11 0
11 59 -58 0
-2 -60 0
11 -60 0
2 60 -11 0
-15 -61 0
60 -61 0
15 61 -60 0
62 -15 0
62 -61 0
15 61 -62 0
-14 -62 -63 0
14 62 -63 0
62 63 -14 0
14 63 -62 0
-3 -64 0
14 -64 0
3 64 -14 0
-17 -65 0
64 -65 0
17 65 -64 0
66 -17 0
66 -65 0
17 65 -66 0
-16 -66 -67 0
16 66 -67 0
66 67 -16 0
16 67 -66 0
-4 -68 0
16 -68 0
4 68 -16 0
-19 -69 0
68 -69 0
19 69 -68 0
70 -19 0
70 -69 0
19 69 -70 0
-18 -70 -71 0
18 70 -71 0
70 71 -18 0
18 71 -70 0
-5 -72 0
18 -72 0
5 72 -18 0
-21 -73 0
72 -73 0
21 73 -72 0
74 -21 0
74 -73 0
21 73 -74 0
-20 -74 -75 0
20 74 -75 0
74 75 -20 0
20 75 -74 0
-6 -76 0
20 -76 0
6 76 -20 0
-23 -77 0
76 -77 0
23 77 -76 0
78 -23 0
78 -77 0
23 77 -78 0
-22 -78 -79 0
22 78 -79 0
78 79 -22 0
22 79 -78 0
-7 -80 0
22 -80 0
7 80 -22 0
-25 -81 0
80 -81 0
25 81 -80 0
82 -25 0
82 -81 0
25 81 -82 0
-24 -82 -83 0
24 82 -83 0
82 83 -24 0
24 83 -82 0
-8 -84 0
24 -84 0
8 84 -24 0
-27 -85 0
84 -85 0
27 85 -84 0
86 -27 0
86 -85 0
27 85 -86 0
-26 -86 -87 0
26 86 -87 0
86 87 -26 0
26 87 -86 0
-9 -88 0
26 -88 0
9 88 -26 0
-29 -89 0
88 -89 0
29 89 -88 0
90 -29 0
90 -89 0
29 89 -90 0
-28 -90 -91 0
28 90 -91 0
90 91 -28 0
28 91 -90 0
-1 -92 0
-2 -92 0
-3 -92 0
-4 -92 0
-5 -92 0
-6 -92 0
-7 -92 0
-8 -92 0
-9 -92 0
-10 -92 0
-59 -92 0
-63 -92 0
-67 -92 0
-71 -92 0
-75 -92 0
-79 -92 0
-83 -92 0
-87 -92 0
-91 -92 0
1 2 3 4 5 6 7 8 9 10 59 63 67 71 75 79 83 87 91 92 0
-30 -93 0
41 -93 0
30 93 -41 0
-40 -94 0
93 -94 0
40 94 -93 0
95 -40 0
95 -94 0
40 94 -95 0
-39 -95 -96 0
39 95 -96 0
95 96 -39 0
39 96 -95 0
-31 -97 0
39 -97 0
31 97 -39 0
-43 -98 0
97 -98 0
43 98 -97 0
99 -43 0
99 -98 0
43 98 -99 0
-42 -99 -100 0
42 99 -100 0
99 100 -42 0
42 100 -99 0
-32 -101 0
42 -101 0
32 101 -42 0
-45 -102 0
101 -102 0
45 102 -101 0
103 -45 0
103 -102 0
45 102 -103 0
-44 -103 -104 0
44 103 -104 0
103 104 -44 0
44 104 -103 0
-33 -105 0
44 -105 0
33 105 -44 0
-47 -106 0
105 -106 0
47 106 -105 0
107 -47 0
107 -106 0
47 106 -107 0
-46 -107 -108 0
46 107 -108 0
107 108 -46 0
46 108 -107 0
-34 -109 0
46 -109 0
34 109 -46 0
-49 -110 0
109 -110 0
49 110 -109 0
111 -49 0
111 -110 0
49 110 -111 0
-48 -111 -112 0
48 111 -112 0
111 112 -48 0
48 112 -111 0
-35 -113 0
48 -113 0
35 113 -48 0
-51 -114 0
113 -114 0
51 114 -113 0
115 -51 0
115 -114 0
51 114 -115 0
-50 -115 -116 0
50 115 -116 0
115 116 -50 0
50 116 -115 0
-36 -117 0
50 -117 0
36 117 -50 0
-53 -118 0
117 -118 0
53 118 -117 0
119 -53 0
119 -118 0
53 118 -119 0
-52 -119 -120 0
52 119 -120 0
119 120 -52 0
52 120 -119 0
-37 -121 0
52 -121 0
37 121 -52 0
-55 -122 0
121 -122 0
55 122 -121 0
123 -55 0
123 -122 0
55 122 -123 0
-54 -123 -124 0
54 123 -124 0
123 124 -54 0
54 124 -123 0
-30 -125 0
-31 -125 0
-32 -125 0
-33 -125 0
-34 -125 0
-35 -125 0
-36 -125 0
-37 -125 0
-38 -125 0
-96 -125 0
-100 -125 0
-104 -125 0
-108 -125 0
-112 -125 0
-116 -125 0
-120 -125 0
-124 -125 0
30 31 32 33 34 35 36 37 38 96 100 104 108 112 116 120 124 125 0
-10 -30 -126 0
10 30 -126 0
30 126 -10 0
10 126 -30 0
-28 -41 -127 0
28 41 -127 0
41 127 -28 0
28 127 -41 0
-126 -128 0
-127 -128 0
126 127 128 0
-10 -31 -129 0
10 31 -129 0
31 129 -10 0
10 129 -31 0
-28 -39 -130 0
28 39 -130 0
39 130 -28 0
28 130 -39 0
-129 -131 0
-130 -131 0
129 130 131 0
-10 -32 -132 0
10 32 -132 0
32 132 -10 0
10 132 -32 0
-28 -42 -133 0
28 42 -133 0
42 133 -28 0
28 133 -42 0
-132 -134 0
-133 -134 0
132 133 134 0
-10 -33 -135 0
10 33 -135 0
33 135 -10 0
10 135 -33 0
-28 -44 -136 0
28 44 -136 0
44 136 -28 0
28 136 -44 0
-135 -137 0
-136 -137 0
135 136 137 0
-10 -34 -138 0
10 34 -138 0
34 138 -10 0
10 138 -34 0
-28 -46 -139 0
28 46 -139 0
46 139 -28 0
28 139 -46 0
-138 -140 0
-139 -140 0
138 139 140 0
-10 -35 -141 0
10 35 -141 0
35 141 -10 0
10 141 -35 0
-28 -48 -142 0
28 48 -142 0
48 142 -28 0
28 142 -48 0
-141 -143 0
-142 -143 0
141 142 143 0
-10 -36 -144 0
10 36 -144 0
36 144 -10 0
10 144 -36 0
-28 -50 -145 0
28 50 -145 0
50 145 -28 0
28 145 -50 0
-144 -146 0
-145 -146 0
144 145 146 0
-10 -37 -147 0
10 37 -147 0
37 147 -10 0
10 147 -37 0
-28 -52 -148 0
28 52 -148 0
52 148 -28 0
28 148 -52 0
-147 -149 0
-148 -149 0
147 148 149 0
-10 -38 -150 0
10 38 -150 0
38 150 -10 0
10 150 -38 0
-28 -54 -151 0
28 54 -151 0
54 151 -28 0
28 151 -54 0
-150 -152 0
-151 -152 0
150 151 152 0
153 -128 0
153 -131 0
153 -134 0
153 -137 0
153 -140 0
153 -143 0
153 -146 0
153 -149 0
153 -152 0
128 131 134 137 140 143 146 149 152 -153 0
125 -154 0
153 -154 0
154 -125 -153 0
154 -92 0
